10 6 15 4 18 14 11 7 8 17 12 9 19 5 13 16 0 1 2 3  
10 6 15 4 18 14 11 17 8 16 9 13 19 12 0 1 5 2 3 7  
10 6 15 4 14 11 8 17 18 16 9 19 1 0 13 12 5 2 3 7  
10 6 15 4 18 14 11 7 8 0 12 5 9 19 17 1 2 13 16 3  
10 6 15 4 18 14 11 0 8 16 9 19 12 17 1 5 7 13 3 2  
10 6 15 4 18 14 11 7 8 17 12 9 19 2 13 16 5 0 1 3  
10 6 15 4 11 14 8 17 18 16 9 19 1 0 13 12 5 2 7 3  
10 6 15 4 18 14 8 17 11 12 9 19 16 0 1 5 7 3 13 2  
10 6 15 4 11 18 14 7 8 0 12 5 9 19 17 1 2 13 16 3  
10 6 15 4 18 14 11 17 8 16 9 13 19 12 0 1 5 2 7 3  
10 6 15 4 11 14 8 0 18 16 9 19 3 12 5 17 1 7 2 13  
10 6 15 4 11 18 14 7 8 0 12 5 9 19 17 1 2 13 16 3  
10 6 15 4 14 8 0 11 16 18 9 19 12 17 1 5 7 3 13 2  
10 6 15 4 11 14 8 0 16 18 9 19 12 17 1 5 7 2 13 3  
10 6 15 4 18 14 11 7 8 17 12 9 19 5 2 1 0 13 16 3  
10 6 15 4 18 14 11 7 8 5 0 12 9 19 17 1 2 13 16 3  
10 6 15 4 14 18 11 7 8 17 12 9 19 2 13 16 5 0 1 3  
10 6 15 4 18 14 11 5 8 17 12 9 19 2 13 16 0 1 7 3  
10 6 15 4 14 11 8 17 18 16 9 19 1 0 13 12 5 2 7 3  
10 6 15 4 18 14 11 7 8 17 12 9 19 5 2 13 0 1 16 3  
10 6 15 4 18 14 11 7 8 17 12 9 19 16 5 0 1 13 2 3  
10 6 15 4 18 14 11 0 8 16 9 19 12 5 17 1 2 7 3 13  
10 6 15 4 18 14 11 7 8 17 12 9 19 2 13 16 5 0 1 3  
10 6 15 4 11 14 8 0 16 18 9 19 3 12 5 17 1 7 2 13  
10 6 15 4 18 14 11 0 8 16 9 19 12 17 1 5 7 3 13 2  
10 6 15 4 18 14 11 7 8 17 12 9 19 2 13 16 5 0 1 3  
10 6 15 4 18 14 11 7 8 17 12 9 19 5 2 13 0 1 16 3  
6 10 4 15 18 11 7 5 8 9 19 2 13 12 0 17 1 16 3 14  
10 6 15 4 18 14 11 7 8 17 12 9 19 2 13 16 5 0 1 3  
10 6 15 4 18 14 11 7 8 17 12 9 19 5 2 0 1 13 16 3  
10 6 15 4 18 14 11 0 8 16 9 13 12 17 1 5 2 7 3 19  
10 6 15 4 18 14 11 7 8 5 9 19 2 12 0 1 17 13 16 3  
10 6 15 4 14 18 11 7 8 17 12 9 19 2 13 16 5 0 1 3  
10 6 15 4 18 14 11 17 8 16 9 19 12 0 1 5 7 2 13 3  
10 6 15 4 11 18 14 7 8 0 12 5 9 19 17 1 2 13 16 3  
10 6 15 4 14 18 11 7 8 17 12 5 9 19 1 0 2 13 16 3  
10 6 15 4 18 14 11 7 8 17 12 9 19 5 2 0 1 13 16 3  
10 6 15 4 11 14 8 0 16 18 9 19 12 17 1 5 7 2 3 13  
